(set-logic QF_S)
(declare-fun var_0xINPUT_228818 () String)
(assert (and (= (len var_0xINPUT_228818) 0) (= (len var_0xINPUT_228818) 0) (not (= var_0xINPUT_228818 "fB9De3KAY9"))))
(check-sat var_0xINPUT_228818)